c Sudoku solution
p cnf 729 0
137 0
162 0
263 0
279 0
313 0
326 0
347 0
392 0
448 0
474 0
529 0
543 0
585 0
614 0
671 0
688 0
699 0
718 0
538 0
724 0
765 0
821 0
876 0
889 0
893 0
173 0
483 0
572 0
777 0
791 0
782 0
984 0
381 0
186 0
287 0
922 0
835 0
817 0
623 0
427 0
496 0
597 0
415 0
212 0
256 0
957 0
753 0
933 0
667 0
128 0
225 0
298 0
194 0
375 0
978 0
995 0
231 0
119 0
334 0
244 0
511 0
432 0
636 0
554 0
566 0
916 0
739 0
746 0
842 0
645 0
652 0
141 0
155 0
949 0
961 0
451 0
469 0
858 0
864 0
359 0
368 0
